%nprocshared=3
%mem=400MB
%chk=C:\Grég_ethanol\ethanol_connectivity.chk
# opt freq hf/3-21g geom=connectivity

title by user

0 1
 C                 -1.07824429   -0.05725191    0.00000000
 H                 -0.72158987   -1.06606191    0.00000000
 H                 -0.72157145    0.44714628   -0.87365150
 H                 -2.14824429   -0.05723872    0.00000000
 C                 -0.56490207    0.66870437    1.25740497
 H                 -0.91995842    1.67807746    1.25642745
 H                  0.50509612    0.66699768    1.25838372
 O                 -1.04371032   -0.00388803    2.42499314
 H                 -0.72391963    0.44832544    3.20910850

 1 2 1.0 3 1.0 4 1.0 5 1.0
 2
 3
 4
 5 6 1.0 7 1.0 8 1.0
 6
 7
 8 9 1.0
 9

